solution status: time limit reached
objective value:                     20.0000027918544
shell_i_$_100__3                                    1 	(obj:0)
shell_i_$_6__3                                      1 	(obj:0)
shell_i_$_137__3                                    1 	(obj:0)
shell_i_$_7__3                                      1 	(obj:0)
shell_j_$_7__3                                      1 	(obj:0)
shell_i_thing.thing.chamber[1].thingy.r1c__3                    1 	(obj:0)
shell_j_$_122__3                                    1 	(obj:0)
shell_i_thing.thing.chamber[2].thingy.v4__3                    1 	(obj:0)
shell_j_$_84__3                                     1 	(obj:0)
shell_j_$_11__3                                     1 	(obj:0)
shell_j_thing.thing.chamber[1].thingy.r4c__3                    1 	(obj:0)
shell_i_thing.loop_exit_flush_hole     1.00000000034383 	(obj:0)
shell_j_$_86__3                                     1 	(obj:0)
shell_j_$_4__3                                      1 	(obj:0)
shell_j_$_10__3                                     1 	(obj:0)
shell_i_$_98__3                                     1 	(obj:0)
shell_j_$_98__3                                     1 	(obj:0)
shell_i_$_15__3                                     1 	(obj:0)
shell_i_$_101__3                                    1 	(obj:0)
shell_i_$_115__3                                    1 	(obj:0)
shell_i_thing.pump1_hole                            1 	(obj:0)
shell_i_$_105__3                                    1 	(obj:0)
shell_j_$_16__3                      1.00000000030404 	(obj:0)
shell_i_$_143__3                                    1 	(obj:0)
shell_j_$_143__3                                    1 	(obj:0)
shell_j_$_88__3                                     1 	(obj:0)
shell_i_$_13__3                                     1 	(obj:0)
shell_i_$_134__3                                    1 	(obj:0)
shell_j_thing.thing.chamber[0].thingy.r1c__3                    1 	(obj:0)
shell_i_$_102__3                                    1 	(obj:0)
shell_j_$_148__3                                    1 	(obj:0)
shell_j_$_22__3                                     1 	(obj:0)
shell_j_$_9__3                                      1 	(obj:0)
shell_j_$_96__3                      1.00000000030697 	(obj:0)
shell_j_$_19__3                                     1 	(obj:0)
shell_i_$_23__3                                     1 	(obj:0)
shell_j_$_23__3                                     1 	(obj:0)
shell_j_$_5__3                                      1 	(obj:0)
shell_j_$_8__3                                      1 	(obj:0)
shell_i_$_18__3                                     1 	(obj:0)
shell_j_$_18__3                                     1 	(obj:0)
shell_j_$_123__3                                    1 	(obj:0)
shell_j_$_17__3                                     1 	(obj:0)
shell_i_thing.thing.chamber[2].thingy.p2                    1 	(obj:0)
shell_i_$_125__3                                    1 	(obj:0)
shell_j_$_125__3                                    1 	(obj:0)
shell_i_$_3__3                                      1 	(obj:0)
shell_j_$_25__3                                     1 	(obj:0)
shell_i_$_20__3                                     1 	(obj:0)
shell_j_$_20__3                                     1 	(obj:0)
shell_i_thing.thing.chamber[1].thingy.r2c__3      1.0000000003207 	(obj:0)
shell_i_$_21__3                      1.00000000074397 	(obj:0)
shell_j_$_12__3                                     1 	(obj:0)
shell_j_$_104__3                                    1 	(obj:0)
shell_i_thing.thing.chamber[2].thingy.p1                    1 	(obj:0)
shell_j_$_2__3                                      1 	(obj:0)
shell_i_$_120__3                                    1 	(obj:0)
shell_j_$_120__3                                    1 	(obj:0)
shell_i_$_147__3                                    1 	(obj:0)
shell_j_$_93__3                                     1 	(obj:0)
shell_j_$_26__3                                     1 	(obj:0)
shell_i_thing.thing.chamber[1].thingy.p1                    1 	(obj:0)
shell_j_thing.pump_flush0_hole                      1 	(obj:0)
$_88__3_x                            3.99999995421643 	(obj:0)
$_88__3_y                                           5 	(obj:0)
$_88__3_z                            20.9999999475336 	(obj:0)
$_7__3_z                             17.9999998877374 	(obj:0)
thing.thing.chamber[1].thingy.r4c__3_x     4.00000002459679 	(obj:0)
$_13__3_x                                           5 	(obj:0)
$_13__3_y                                           4 	(obj:0)
$_13__3_z                            15.0000000336382 	(obj:0)
thing.thing.chamber[1].thingy.r4c__3_y                    5 	(obj:0)
thing.thing.chamber[1].thingy.r4c__3_z     17.0000000086621 	(obj:0)
$_134__3_x                                          5 	(obj:0)
$_134__3_y                       3.74107730339638e-08 	(obj:0)
$_134__3_z                           16.9999999965542 	(obj:0)
$_6__3_y                                            4 	(obj:0)
$_6__3_z                             13.0000000631233 	(obj:0)
thing.thing.chamber[0].thingy.r1c__3_x     3.00000000432665 	(obj:0)
thing.thing.chamber[0].thingy.r1c__3_y                    5 	(obj:0)
thing.thing.chamber[0].thingy.r1c__3_z     14.0000000683959 	(obj:0)
thing.loop_exit_flush_hole_x         5.00000000020918 	(obj:0)
thing.loop_exit_flush_hole_y         1.00000000239439 	(obj:0)
$_102__3_x                                          5 	(obj:0)
$_102__3_y                           4.99999999279791 	(obj:0)
$_102__3_z                                         25 	(obj:0)
thing.loop_exit_flush_hole_z         17.0000000719401 	(obj:0)
thing.thing.chamber[1].thingy.r1c__3_x                    5 	(obj:0)
$_148__3_x                                          5 	(obj:0)
$_148__3_y                                         -5 	(obj:0)
$_148__3_z                                         16 	(obj:0)
$_86__3_x                             2.9999999752933 	(obj:0)
$_22__3_x                           0.999999988767789 	(obj:0)
$_22__3_y                                           5 	(obj:0)
$_22__3_z                            20.9999999375629 	(obj:0)
$_86__3_y                                           5 	(obj:0)
$_86__3_z                            16.9999999289012 	(obj:0)
$_9__3_x                             3.99999994940262 	(obj:0)
$_9__3_y                                            5 	(obj:0)
$_9__3_z                                           19 	(obj:0)
thing.thing.chamber[1].thingy.r1c__3_z     20.0000001066933 	(obj:0)
$_100__3_z                                         24 	(obj:0)
$_96__3_x                           -1.00000001361675 	(obj:0)
$_96__3_y                            5.00000000011329 	(obj:0)
$_96__3_z                                          20 	(obj:0)
$_4__3_x                             3.00000001231864 	(obj:0)
$_4__3_y                                            5 	(obj:0)
$_19__3_x                                           4 	(obj:0)
$_19__3_y                                           5 	(obj:0)
$_19__3_z                            15.0000000211614 	(obj:0)
$_4__3_z                             15.9999999759376 	(obj:0)
$_100__3_x                                          5 	(obj:0)
$_23__3_x                                           5 	(obj:0)
$_23__3_y                                           5 	(obj:0)
$_23__3_z                            16.0000000863976 	(obj:0)
$_122__3_x                       -1.23814910857485e-08 	(obj:0)
$_10__3_x                            3.99999996340188 	(obj:0)
$_5__3_x                             1.99999999430772 	(obj:0)
$_5__3_y                                           -5 	(obj:0)
$_5__3_z                                           16 	(obj:0)
$_10__3_y                                           5 	(obj:0)
$_10__3_z                            21.9999999977401 	(obj:0)
$_8__3_x                                            5 	(obj:0)
$_8__3_y                                            5 	(obj:0)
$_8__3_z                             21.9999999960629 	(obj:0)
$_122__3_y                                          5 	(obj:0)
$_122__3_z                           20.9999998465271 	(obj:0)
$_18__3_x                                           5 	(obj:0)
$_18__3_y                                           5 	(obj:0)
$_18__3_z                            15.0000000741568 	(obj:0)
$_98__3_x                                           5 	(obj:0)
$_98__3_y                                           5 	(obj:0)
$_123__3_x                           1.99999996909448 	(obj:0)
$_123__3_y                                          5 	(obj:0)
$_123__3_z                           19.0000000184832 	(obj:0)
$_98__3_z                            18.9999999468835 	(obj:0)
$_137__3_x                                          5 	(obj:0)
$_17__3_x                                           4 	(obj:0)
$_17__3_y                                          -5 	(obj:0)
$_17__3_z                            16.9999998864735 	(obj:0)
$_137__3_y                                         -2 	(obj:0)
$_15__3_x                                           5 	(obj:0)
thing.thing.chamber[2].thingy.p2_x                    5 	(obj:0)
thing.thing.chamber[2].thingy.p2_y                    1 	(obj:0)
thing.thing.chamber[2].thingy.p2_z     16.0000000158581 	(obj:0)
$_15__3_y                             4.0000000092116 	(obj:0)
$_15__3_z                                          17 	(obj:0)
$_125__3_x                                          5 	(obj:0)
$_125__3_y                                          5 	(obj:0)
$_125__3_z                           20.9999999964251 	(obj:0)
thing.thing.chamber[2].thingy.v4__3_x                    5 	(obj:0)
thing.thing.chamber[2].thingy.v4__3_y -2.73009066679363e-08 	(obj:0)
$_3__3_x                                            5 	(obj:0)
$_3__3_y                                            1 	(obj:0)
$_3__3_z                             14.0000000683923 	(obj:0)
$_101__3_x                                          5 	(obj:0)
$_101__3_y                            3.9999999621151 	(obj:0)
$_25__3_x                            2.99999997487088 	(obj:0)
$_25__3_y                                           5 	(obj:0)
$_25__3_z                            20.9999999856438 	(obj:0)
$_101__3_z                                         25 	(obj:0)
thing.thing.chamber[2].thingy.v4__3_z                   16 	(obj:0)
$_20__3_x                                           5 	(obj:0)
$_20__3_y                                          -5 	(obj:0)
$_20__3_z                            17.0000000027824 	(obj:0)
$_137__3_z                           15.0000000733758 	(obj:0)
$_115__3_x                                          5 	(obj:0)
thing.thing.chamber[1].thingy.r2c__3_x     5.00000000015269 	(obj:0)
thing.thing.chamber[1].thingy.r2c__3_y    -1.00000001338986 	(obj:0)
thing.thing.chamber[1].thingy.r2c__3_z     16.9999999838625 	(obj:0)
$_115__3_y                       -1.36163262997908e-08 	(obj:0)
$_115__3_z                           21.9999998920781 	(obj:0)
$_21__3_x                            5.00000000011329 	(obj:0)
$_21__3_y                           -3.99999999069698 	(obj:0)
$_21__3_z                            15.0000000736153 	(obj:0)
$_100__3_y                            4.0000000169334 	(obj:0)
$_84__3_x                            3.99999996469759 	(obj:0)
$_12__3_x                                           4 	(obj:0)
$_12__3_y                                           5 	(obj:0)
$_12__3_z                                          20 	(obj:0)
thing.pump1_hole_x                                  5 	(obj:0)
thing.pump1_hole_y                   1.99999999447596 	(obj:0)
$_104__3_x                           2.00000000649487 	(obj:0)
$_104__3_y                                          5 	(obj:0)
$_104__3_z                                         20 	(obj:0)
thing.pump1_hole_z                   17.0000000895871 	(obj:0)
$_84__3_y                                           5 	(obj:0)
thing.thing.chamber[2].thingy.p1_x                    5 	(obj:0)
thing.thing.chamber[2].thingy.p1_y    -1.00000002080358 	(obj:0)
thing.thing.chamber[2].thingy.p1_z     14.0000000682853 	(obj:0)
$_84__3_z                            16.0000000664183 	(obj:0)
$_105__3_x                                          5 	(obj:0)
$_2__3_x                            0.999999986383831 	(obj:0)
$_2__3_y                                           -5 	(obj:0)
$_2__3_z                             15.0000000736006 	(obj:0)
$_105__3_y                          -1.00000007138282 	(obj:0)
$_105__3_z                           16.0000000059194 	(obj:0)
$_120__3_x                                          5 	(obj:0)
$_120__3_y                                          5 	(obj:0)
$_120__3_z                           23.0000000083542 	(obj:0)
$_6__3_x                                            5 	(obj:0)
$_7__3_x                                            5 	(obj:0)
$_147__3_x                                          5 	(obj:0)
$_147__3_y                       -2.59576942204406e-08 	(obj:0)
$_147__3_z                           17.9999999536987 	(obj:0)
$_16__3_x                           -1.00000001361627 	(obj:0)
$_16__3_y                           -5.00000000011329 	(obj:0)
$_93__3_x                            3.00000000368433 	(obj:0)
$_93__3_y                                           5 	(obj:0)
$_93__3_z                            18.0000001055587 	(obj:0)
$_16__3_z                            16.9999999158532 	(obj:0)
$_11__3_x                                           4 	(obj:0)
$_26__3_x                            5.00000000843006 	(obj:0)
$_26__3_y                                           5 	(obj:0)
$_26__3_z                            19.9999999894224 	(obj:0)
$_11__3_y                                           5 	(obj:0)
$_143__3_x                                          5 	(obj:0)
thing.thing.chamber[1].thingy.p1_x                    5 	(obj:0)
thing.thing.chamber[1].thingy.p1_y      2.0000000255786 	(obj:0)
thing.thing.chamber[1].thingy.p1_z     16.0000000428049 	(obj:0)
$_143__3_y                                         -5 	(obj:0)
$_143__3_z                           14.0000000684134 	(obj:0)
thing.pump_flush0_hole_x                            4 	(obj:0)
thing.pump_flush0_hole_y                           -5 	(obj:0)
thing.pump_flush0_hole_z             15.0000000733443 	(obj:0)
$_11__3_z                                          25 	(obj:0)
$_7__3_y                                            5 	(obj:0)
x276                             1.91030820448727e-08 	(obj:1)
x277                             8.60873463332624e-09 	(obj:1)
x278                             4.55153994212142e-09 	(obj:1)
x279                             1.91030820448727e-08 	(obj:1)
x280                             4.55153994212142e-09 	(obj:1)
x281                             -5.89904674319764e-09 	(obj:1)
x282                             1.91030820448727e-08 	(obj:1)
x283                             4.55153994212142e-09 	(obj:1)
x284                             -5.98624871673452e-09 	(obj:1)
x285                             1.91030820448727e-08 	(obj:1)
x286                             1.91030820448727e-08 	(obj:1)
x287                             4.55153994212146e-09 	(obj:1)
x288                             1.91030820448727e-08 	(obj:1)
x289                             4.55153994212142e-09 	(obj:1)
x291                             2.53376676629915e-08 	(obj:1)
x292                             1.91030820448727e-08 	(obj:1)
x293                             2.27151275567679e-09 	(obj:1)
x294                             1.91030820448727e-08 	(obj:1)
x295                             3.79857740817721e-08 	(obj:1)
x296                             4.55153994212142e-09 	(obj:1)
x297                             4.50391340390596e-08 	(obj:1)
x298                             1.91030820448727e-08 	(obj:1)
x300                                 1.00000001910308 	(obj:1)
x301                             1.91030820448727e-08 	(obj:1)
x302                             1.91030820448727e-08 	(obj:1)
x303                              5.6006875001789e-09 	(obj:1)
x304                             1.91030820448727e-08 	(obj:1)
x305                             2.31558914285909e-08 	(obj:1)
x306                             1.89986125111012e-08 	(obj:1)
x307                             1.79985412653153e-08 	(obj:1)
x309                             3.49053231473297e-08 	(obj:1)
x310                             1.91030820448727e-08 	(obj:1)
x311                             2.01482675941563e-09 	(obj:1)
x312                                 2.00000000451632 	(obj:1)
x313                             1.91030820448727e-08 	(obj:1)
x314                             3.48304168605091e-08 	(obj:1)
x315                             4.60771770133348e-08 	(obj:1)
x316                             1.91030820448727e-08 	(obj:1)
x317                             1.39894056474125e-08 	(obj:1)
x318                             1.91030820448727e-08 	(obj:1)
x319                             1.91030820448727e-08 	(obj:1)
x320                             -7.72722865069458e-09 	(obj:1)
x321                             1.91030820448727e-08 	(obj:1)
x322                             1.16097666475451e-08 	(obj:1)
x323                             4.55153994212142e-09 	(obj:1)
x324                             1.91030820448727e-08 	(obj:1)
x325                             4.69091120174753e-08 	(obj:1)
x326                             4.55153994212142e-09 	(obj:1)
x327                             1.91030820448727e-08 	(obj:1)
x328                             2.72343336545196e-08 	(obj:1)
x329                             -1.68123753796615e-09 	(obj:1)
x330                             1.91030820448727e-08 	(obj:1)
x331                             4.55153994212117e-09 	(obj:1)
x332                             9.64097886954657e-08 	(obj:1)
x333                             1.91030820448727e-08 	(obj:1)
x334                             7.87813501252627e-08 	(obj:1)
x335                             1.18505919508269e-08 	(obj:1)
x336                             2.72342614544326e-08 	(obj:1)
x337                              1.9046461235096e-08 	(obj:1)
x338                             -4.96509981622135e-09 	(obj:1)
x339                             1.91030820448727e-08 	(obj:1)
x340                             1.91030820448727e-08 	(obj:1)
x341                             -5.80359397183749e-09 	(obj:1)
x342                             5.41092432445888e-08 	(obj:1)
x343                             1.91030820448727e-08 	(obj:1)
x344                             7.46181093365544e-09 	(obj:1)
x345                             1.91030820448727e-08 	(obj:1)
x346                             4.55153994212142e-09 	(obj:1)
x347                             1.52958323214251e-09 	(obj:1)
x348                             1.91030820448727e-08 	(obj:1)
x349                             4.68416945595958e-08 	(obj:1)
x350                             1.84586155718197e-08 	(obj:1)
x351                                 2.00000001135273 	(obj:1)
x352                             4.55153994212142e-09 	(obj:1)
x353                             -5.41259568892237e-09 	(obj:1)
x354                             1.91030820448727e-08 	(obj:1)
x355                             2.20734434362484e-08 	(obj:1)
x356                             4.55153994212142e-09 	(obj:1)
x357                             4.55153994212142e-09 	(obj:1)
x358                             1.91030820448727e-08 	(obj:1)
x359                             4.55153994212142e-09 	(obj:1)
x360                             2.57188753473766e-08 	(obj:1)
x361                             1.91030820448727e-08 	(obj:1)
x362                             -9.99937307704105e-09 	(obj:1)
x363                             5.90134371364016e-08 	(obj:1)
x364                             1.91030820448727e-08 	(obj:1)
x365                             4.55153994212142e-09 	(obj:1)
x366                             2.72350042847928e-08 	(obj:1)
x367                             1.90464611695683e-08 	(obj:1)
x368                             4.55153994212142e-09 	(obj:1)
x369                                 1.00000001910308 	(obj:1)
x370                             1.91030820448727e-08 	(obj:1)
x371                             1.51559909129673e-09 	(obj:1)
x372                             1.91030820448727e-08 	(obj:1)
x373                             1.91030820448727e-08 	(obj:1)
x374                             9.32166319316561e-08 	(obj:1)
x375                             2.13877419758811e-08 	(obj:1)
x376                             1.91030820448727e-08 	(obj:1)
x377                             4.55153994212142e-09 	(obj:1)
x378                             1.91030820448727e-08 	(obj:1)
x379                             1.91030820448727e-08 	(obj:1)
x380                             1.26343512993655e-08 	(obj:1)
x381                             1.91030820448727e-08 	(obj:1)
x382                             4.55153994212142e-09 	(obj:1)
x383                             6.86036583416283e-09 	(obj:1)
x384                             4.12064977379122e-08 	(obj:1)
x385                             1.91030820448727e-08 	(obj:1)
x386                             7.25255987302653e-09 	(obj:1)
x387                             4.55153994212142e-09 	(obj:1)
x388                             1.91030820448727e-08 	(obj:1)
x391                                 1.00000001910308 	(obj:1)
x392                             2.80188637312142e-08 	(obj:1)
x394                                 1.00000001910308 	(obj:1)
x396                             1.91030820448727e-08 	(obj:1)
x397                             1.91030820448727e-08 	(obj:1)
x398                             4.55153994212119e-09 	(obj:1)
x399                             1.91030820448727e-08 	(obj:1)
x400                             4.55153994212142e-09 	(obj:1)
x401                             -5.57371338085294e-09 	(obj:1)
x402                                 2.00000003491417 	(obj:1)
x403                             4.55153994212142e-09 	(obj:1)
x404                             8.73780997831516e-09 	(obj:1)
x405                             1.91030820448727e-08 	(obj:1)
x406                             1.91030820448727e-08 	(obj:1)
x407                             1.59991013927724e-08 	(obj:1)
x408                             1.90268028280613e-08 	(obj:1)
x409                             2.70447635999525e-08 	(obj:1)
x410                             6.35744597192953e-09 	(obj:1)
x411                             1.90464611586824e-08 	(obj:1)
x412                             1.14017662683708e-08 	(obj:1)
x413                             -5.38952569222542e-09 	(obj:1)
x414                             4.55153994212142e-09 	(obj:1)
x415                             1.91030820448727e-08 	(obj:1)
x416                             4.55153994212142e-09 	(obj:1)
x417                                 3.00000000732642 	(obj:1)
x418                             1.91030820448727e-08 	(obj:1)
x419                             4.55153994212142e-09 	(obj:1)
x420                             1.91030820448727e-08 	(obj:1)
x421                             3.23634159870782e-08 	(obj:1)
x422                             -6.43157877707831e-09 	(obj:1)
x423                               2.723409404761e-08 	(obj:1)
x424                             1.91030820448727e-08 	(obj:1)
x425                             -5.81590301332987e-09 	(obj:1)
x426                             1.91030820448727e-08 	(obj:1)
x427                             1.91030820448727e-08 	(obj:1)
x428                             2.02222278168865e-08 	(obj:1)
x429                             1.91030820448727e-08 	(obj:1)
x430                             3.70290653988226e-08 	(obj:1)
x431                             7.50009450605845e-09 	(obj:1)
x432                                 2.00000001227726 	(obj:1)
x433                             1.91030820448727e-08 	(obj:1)
x434                             -2.58795997591894e-09 	(obj:1)
x435                             1.05955089149429e-08 	(obj:1)
x436                             4.55153994212142e-09 	(obj:1)
x437                             6.82451966461949e-09 	(obj:1)
x438                             2.27204110483456e-08 	(obj:1)
x440                             4.60113706631949e-08 	(obj:1)
x441                             4.36626405344901e-08 	(obj:1)
x442                             3.64795265404355e-08 	(obj:1)
x443                                 1.00000000434635 	(obj:1)
x444                             8.33377893435047e-09 	(obj:1)
x445                             1.85418559462692e-08 	(obj:1)
x446                              4.3464495572742e-09 	(obj:1)
x447                                 1.00000001910308 	(obj:1)
x448                                   3.000000010778 	(obj:1)
x449                             -5.83282868003841e-09 	(obj:1)
